Minimize
 obj: 0 X_0_1
Subject To
 out_0:
  + 1 X_0_1 + 1 X_0_2 + 1 X_0_3 + 1 X_0_4 + 1 X_0_5 + 1 X_0_6 + 1 X_0_7 + 1 X_0_8
  + 1 X_0_9
  = 1
 in_0:
  + 1 X_1_0 + 1 X_2_0 + 1 X_3_0 + 1 X_4_0 + 1 X_5_0 + 1 X_6_0 + 1 X_7_0 + 1 X_8_0
  + 1 X_9_0
  = 1
 out_1:
  + 1 X_1_0 + 1 X_1_2 + 1 X_1_3 + 1 X_1_4 + 1 X_1_5 + 1 X_1_6 + 1 X_1_7 + 1 X_1_8
  + 1 X_1_9
  = 1
 in_1:
  + 1 X_0_1 + 1 X_2_1 + 1 X_3_1 + 1 X_4_1 + 1 X_5_1 + 1 X_6_1 + 1 X_7_1 + 1 X_8_1
  + 1 X_9_1
  = 1
 out_2:
  + 1 X_2_0 + 1 X_2_1 + 1 X_2_3 + 1 X_2_4 + 1 X_2_5 + 1 X_2_6 + 1 X_2_7 + 1 X_2_8
  + 1 X_2_9
  = 1
 in_2:
  + 1 X_0_2 + 1 X_1_2 + 1 X_3_2 + 1 X_4_2 + 1 X_5_2 + 1 X_6_2 + 1 X_7_2 + 1 X_8_2
  + 1 X_9_2
  = 1
 out_3:
  + 1 X_3_0 + 1 X_3_1 + 1 X_3_2 + 1 X_3_4 + 1 X_3_5 + 1 X_3_6 + 1 X_3_7 + 1 X_3_8
  + 1 X_3_9
  = 1
 in_3:
  + 1 X_0_3 + 1 X_1_3 + 1 X_2_3 + 1 X_4_3 + 1 X_5_3 + 1 X_6_3 + 1 X_7_3 + 1 X_8_3
  + 1 X_9_3
  = 1
 out_4:
  + 1 X_4_0 + 1 X_4_1 + 1 X_4_2 + 1 X_4_3 + 1 X_4_5 + 1 X_4_6 + 1 X_4_7 + 1 X_4_8
  + 1 X_4_9
  = 1
 in_4:
  + 1 X_0_4 + 1 X_1_4 + 1 X_2_4 + 1 X_3_4 + 1 X_5_4 + 1 X_6_4 + 1 X_7_4 + 1 X_8_4
  + 1 X_9_4
  = 1
 out_5:
  + 1 X_5_0 + 1 X_5_1 + 1 X_5_2 + 1 X_5_3 + 1 X_5_4 + 1 X_5_6 + 1 X_5_7 + 1 X_5_8
  + 1 X_5_9
  = 1
 in_5:
  + 1 X_0_5 + 1 X_1_5 + 1 X_2_5 + 1 X_3_5 + 1 X_4_5 + 1 X_6_5 + 1 X_7_5 + 1 X_8_5
  + 1 X_9_5
  = 1
 out_6:
  + 1 X_6_0 + 1 X_6_1 + 1 X_6_2 + 1 X_6_3 + 1 X_6_4 + 1 X_6_5 + 1 X_6_7 + 1 X_6_8
  + 1 X_6_9
  = 1
 in_6:
  + 1 X_0_6 + 1 X_1_6 + 1 X_2_6 + 1 X_3_6 + 1 X_4_6 + 1 X_5_6 + 1 X_7_6 + 1 X_8_6
  + 1 X_9_6
  = 1
 out_7:
  + 1 X_7_0 + 1 X_7_1 + 1 X_7_2 + 1 X_7_3 + 1 X_7_4 + 1 X_7_5 + 1 X_7_6 + 1 X_7_8
  + 1 X_7_9
  = 1
 in_7:
  + 1 X_0_7 + 1 X_1_7 + 1 X_2_7 + 1 X_3_7 + 1 X_4_7 + 1 X_5_7 + 1 X_6_7 + 1 X_8_7
  + 1 X_9_7
  = 1
 out_8:
  + 1 X_8_0 + 1 X_8_1 + 1 X_8_2 + 1 X_8_3 + 1 X_8_4 + 1 X_8_5 + 1 X_8_6 + 1 X_8_7
  + 1 X_8_9
  = 1
 in_8:
  + 1 X_0_8 + 1 X_1_8 + 1 X_2_8 + 1 X_3_8 + 1 X_4_8 + 1 X_5_8 + 1 X_6_8 + 1 X_7_8
  + 1 X_9_8
  = 1
 out_9:
  + 1 X_9_0 + 1 X_9_1 + 1 X_9_2 + 1 X_9_3 + 1 X_9_4 + 1 X_9_5 + 1 X_9_6 + 1 X_9_7
  + 1 X_9_8
  = 1
 in_9:
  + 1 X_0_9 + 1 X_1_9 + 1 X_2_9 + 1 X_3_9 + 1 X_4_9 + 1 X_5_9 + 1 X_6_9 + 1 X_7_9
  + 1 X_8_9
  = 1
 mtz_1_2:
  + 1 U1 - 1 U2 + 9 X_1_2
  <= 8
 mtz_1_3:
  + 1 U1 - 1 U3 + 9 X_1_3
  <= 8
 mtz_1_4:
  + 1 U1 - 1 U4 + 9 X_1_4
  <= 8
 mtz_1_5:
  + 1 U1 - 1 U5 + 9 X_1_5
  <= 8
 mtz_1_6:
  + 1 U1 - 1 U6 + 9 X_1_6
  <= 8
 mtz_1_7:
  + 1 U1 - 1 U7 + 9 X_1_7
  <= 8
 mtz_1_8:
  + 1 U1 - 1 U8 + 9 X_1_8
  <= 8
 mtz_1_9:
  + 1 U1 - 1 U9 + 9 X_1_9
  <= 8
 mtz_2_1:
  + 1 U2 - 1 U1 + 9 X_2_1
  <= 8
 mtz_2_3:
  + 1 U2 - 1 U3 + 9 X_2_3
  <= 8
 mtz_2_4:
  + 1 U2 - 1 U4 + 9 X_2_4
  <= 8
 mtz_2_5:
  + 1 U2 - 1 U5 + 9 X_2_5
  <= 8
 mtz_2_6:
  + 1 U2 - 1 U6 + 9 X_2_6
  <= 8
 mtz_2_7:
  + 1 U2 - 1 U7 + 9 X_2_7
  <= 8
 mtz_2_8:
  + 1 U2 - 1 U8 + 9 X_2_8
  <= 8
 mtz_2_9:
  + 1 U2 - 1 U9 + 9 X_2_9
  <= 8
 mtz_3_1:
  + 1 U3 - 1 U1 + 9 X_3_1
  <= 8
 mtz_3_2:
  + 1 U3 - 1 U2 + 9 X_3_2
  <= 8
 mtz_3_4:
  + 1 U3 - 1 U4 + 9 X_3_4
  <= 8
 mtz_3_5:
  + 1 U3 - 1 U5 + 9 X_3_5
  <= 8
 mtz_3_6:
  + 1 U3 - 1 U6 + 9 X_3_6
  <= 8
 mtz_3_7:
  + 1 U3 - 1 U7 + 9 X_3_7
  <= 8
 mtz_3_8:
  + 1 U3 - 1 U8 + 9 X_3_8
  <= 8
 mtz_3_9:
  + 1 U3 - 1 U9 + 9 X_3_9
  <= 8
 mtz_4_1:
  + 1 U4 - 1 U1 + 9 X_4_1
  <= 8
 mtz_4_2:
  + 1 U4 - 1 U2 + 9 X_4_2
  <= 8
 mtz_4_3:
  + 1 U4 - 1 U3 + 9 X_4_3
  <= 8
 mtz_4_5:
  + 1 U4 - 1 U5 + 9 X_4_5
  <= 8
 mtz_4_6:
  + 1 U4 - 1 U6 + 9 X_4_6
  <= 8
 mtz_4_7:
  + 1 U4 - 1 U7 + 9 X_4_7
  <= 8
 mtz_4_8:
  + 1 U4 - 1 U8 + 9 X_4_8
  <= 8
 mtz_4_9:
  + 1 U4 - 1 U9 + 9 X_4_9
  <= 8
 mtz_5_1:
  + 1 U5 - 1 U1 + 9 X_5_1
  <= 8
 mtz_5_2:
  + 1 U5 - 1 U2 + 9 X_5_2
  <= 8
 mtz_5_3:
  + 1 U5 - 1 U3 + 9 X_5_3
  <= 8
 mtz_5_4:
  + 1 U5 - 1 U4 + 9 X_5_4
  <= 8
 mtz_5_6:
  + 1 U5 - 1 U6 + 9 X_5_6
  <= 8
 mtz_5_7:
  + 1 U5 - 1 U7 + 9 X_5_7
  <= 8
 mtz_5_8:
  + 1 U5 - 1 U8 + 9 X_5_8
  <= 8
 mtz_5_9:
  + 1 U5 - 1 U9 + 9 X_5_9
  <= 8
 mtz_6_1:
  + 1 U6 - 1 U1 + 9 X_6_1
  <= 8
 mtz_6_2:
  + 1 U6 - 1 U2 + 9 X_6_2
  <= 8
 mtz_6_3:
  + 1 U6 - 1 U3 + 9 X_6_3
  <= 8
 mtz_6_4:
  + 1 U6 - 1 U4 + 9 X_6_4
  <= 8
 mtz_6_5:
  + 1 U6 - 1 U5 + 9 X_6_5
  <= 8
 mtz_6_7:
  + 1 U6 - 1 U7 + 9 X_6_7
  <= 8
 mtz_6_8:
  + 1 U6 - 1 U8 + 9 X_6_8
  <= 8
 mtz_6_9:
  + 1 U6 - 1 U9 + 9 X_6_9
  <= 8
 mtz_7_1:
  + 1 U7 - 1 U1 + 9 X_7_1
  <= 8
 mtz_7_2:
  + 1 U7 - 1 U2 + 9 X_7_2
  <= 8
 mtz_7_3:
  + 1 U7 - 1 U3 + 9 X_7_3
  <= 8
 mtz_7_4:
  + 1 U7 - 1 U4 + 9 X_7_4
  <= 8
 mtz_7_5:
  + 1 U7 - 1 U5 + 9 X_7_5
  <= 8
 mtz_7_6:
  + 1 U7 - 1 U6 + 9 X_7_6
  <= 8
 mtz_7_8:
  + 1 U7 - 1 U8 + 9 X_7_8
  <= 8
 mtz_7_9:
  + 1 U7 - 1 U9 + 9 X_7_9
  <= 8
 mtz_8_1:
  + 1 U8 - 1 U1 + 9 X_8_1
  <= 8
 mtz_8_2:
  + 1 U8 - 1 U2 + 9 X_8_2
  <= 8
 mtz_8_3:
  + 1 U8 - 1 U3 + 9 X_8_3
  <= 8
 mtz_8_4:
  + 1 U8 - 1 U4 + 9 X_8_4
  <= 8
 mtz_8_5:
  + 1 U8 - 1 U5 + 9 X_8_5
  <= 8
 mtz_8_6:
  + 1 U8 - 1 U6 + 9 X_8_6
  <= 8
 mtz_8_7:
  + 1 U8 - 1 U7 + 9 X_8_7
  <= 8
 mtz_8_9:
  + 1 U8 - 1 U9 + 9 X_8_9
  <= 8
 mtz_9_1:
  + 1 U9 - 1 U1 + 9 X_9_1
  <= 8
 mtz_9_2:
  + 1 U9 - 1 U2 + 9 X_9_2
  <= 8
 mtz_9_3:
  + 1 U9 - 1 U3 + 9 X_9_3
  <= 8
 mtz_9_4:
  + 1 U9 - 1 U4 + 9 X_9_4
  <= 8
 mtz_9_5:
  + 1 U9 - 1 U5 + 9 X_9_5
  <= 8
 mtz_9_6:
  + 1 U9 - 1 U6 + 9 X_9_6
  <= 8
 mtz_9_7:
  + 1 U9 - 1 U7 + 9 X_9_7
  <= 8
 mtz_9_8:
  + 1 U9 - 1 U8 + 9 X_9_8
  <= 8
 obj1:
  + 182 X_0_1 + 190 X_0_2 + 807 X_0_3 + 719 X_0_4 + 122 X_0_5 + 882 X_0_6 + 840 X_0_7 + 965 X_0_8
  + 574 X_0_9 + 182 X_1_0 + 23 X_1_2 + 649 X_1_3 + 546 X_1_4 + 88 X_1_5 + 742 X_1_6 + 662 X_1_7
  + 798 X_1_8 + 404 X_1_9 + 190 X_2_0 + 23 X_2_1 + 657 X_2_3 + 549 X_2_4 + 107 X_2_5 + 753 X_2_6
  + 663 X_2_7 + 802 X_2_8 + 410 X_2_9 + 807 X_3_0 + 649 X_3_1 + 657 X_3_2 + 161 X_3_4 + 685 X_3_5
  + 150 X_3_6 + 215 X_3_7 + 180 X_3_8 + 254 X_3_9 + 719 X_4_0 + 546 X_4_1 + 549 X_4_2 + 161 X_4_3
  + 598 X_4_5 + 310 X_4_6 + 137 X_4_7 + 255 X_4_8 + 146 X_4_9 + 122 X_5_0 + 88 X_5_1 + 107 X_5_2
  + 685 X_5_3 + 598 X_5_4 + 763 X_5_6 + 721 X_5_7 + 844 X_5_8 + 453 X_5_9 + 882 X_6_0 + 742 X_6_1
  + 753 X_6_2 + 150 X_6_3 + 310 X_6_4 + 763 X_6_5 + 356 X_6_7 + 246 X_6_8 + 375 X_6_9 + 840 X_7_0
  + 662 X_7_1 + 663 X_7_2 + 215 X_7_3 + 137 X_7_4 + 721 X_7_5 + 356 X_7_6 + 192 X_7_8 + 277 X_7_9
  + 965 X_8_0 + 798 X_8_1 + 802 X_8_2 + 180 X_8_3 + 255 X_8_4 + 844 X_8_5 + 246 X_8_6 + 192 X_8_7
  + 393 X_8_9 + 574 X_9_0 + 404 X_9_1 + 410 X_9_2 + 254 X_9_3 + 146 X_9_4 + 453 X_9_5 + 375 X_9_6
  + 277 X_9_7 + 393 X_9_8
  <= 1
 obj2:
  + 1017 X_0_1 + 619 X_0_2 + 942 X_0_3 + 546 X_0_4 + 470 X_0_5 + 903 X_0_6 + 361 X_0_7 + 435 X_0_8
  + 443 X_0_9 + 1017 X_1_0 + 630 X_1_2 + 120 X_1_3 + 530 X_1_4 + 582 X_1_5 + 128 X_1_6 + 719 X_1_7
  + 593 X_1_8 + 1177 X_1_9 + 619 X_2_0 + 630 X_2_1 + 514 X_2_3 + 187 X_2_4 + 499 X_2_5 + 577 X_2_6
  + 266 X_2_7 + 443 X_2_8 + 986 X_2_9 + 942 X_3_0 + 120 X_3_1 + 514 X_3_2 + 429 X_3_4 + 535 X_3_5
  + 149 X_3_6 + 623 X_3_7 + 535 X_3_8 + 1142 X_3_9 + 546 X_4_0 + 530 X_4_1 + 187 X_4_2 + 429 X_4_3
  + 317 X_4_5 + 448 X_4_6 + 198 X_4_7 + 265 X_4_8 + 852 X_4_9 + 470 X_5_0 + 582 X_5_1 + 499 X_5_2
  + 535 X_5_3 + 317 X_5_4 + 457 X_5_6 + 331 X_5_7 + 64 X_5_8 + 607 X_5_9 + 903 X_6_0 + 128 X_6_1
  + 577 X_6_2 + 149 X_6_3 + 448 X_6_4 + 457 X_6_5 + 624 X_6_7 + 473 X_6_8 + 1049 X_6_9 + 361 X_7_0
  + 719 X_7_1 + 266 X_7_2 + 623 X_7_3 + 198 X_7_4 + 331 X_7_5 + 624 X_7_6 + 267 X_7_8 + 723 X_7_9
  + 435 X_8_0 + 593 X_8_1 + 443 X_8_2 + 535 X_8_3 + 265 X_8_4 + 64 X_8_5 + 473 X_8_6 + 267 X_8_7
  + 621 X_8_9 + 443 X_9_0 + 1177 X_9_1 + 986 X_9_2 + 1142 X_9_3 + 852 X_9_4 + 607 X_9_5 + 1049 X_9_6
  + 723 X_9_7 + 621 X_9_8
  <= 2
 obj3:
  + 874 X_0_1 + 753 X_0_2 + 413 X_0_3 + 774 X_0_4 + 790 X_0_5 + 1020 X_0_6 + 745 X_0_7 + 469 X_0_8
  + 418 X_0_9 + 874 X_1_0 + 516 X_1_2 + 538 X_1_3 + 841 X_1_4 + 143 X_1_5 + 227 X_1_6 + 247 X_1_7
  + 925 X_1_8 + 734 X_1_9 + 753 X_2_0 + 516 X_2_1 + 351 X_2_3 + 330 X_2_4 + 375 X_2_5 + 469 X_2_6
  + 273 X_2_7 + 536 X_2_8 + 391 X_2_9 + 413 X_3_0 + 538 X_3_1 + 351 X_3_2 + 490 X_3_4 + 420 X_3_5
  + 633 X_3_6 + 350 X_3_7 + 405 X_3_8 + 215 X_3_9 + 774 X_4_0 + 841 X_4_1 + 330 X_4_2 + 490 X_4_3
  + 697 X_4_5 + 795 X_4_6 + 593 X_4_7 + 369 X_4_8 + 358 X_4_9 + 790 X_5_0 + 143 X_5_1 + 375 X_5_2
  + 420 X_5_3 + 697 X_5_4 + 233 X_5_6 + 104 X_5_7 + 792 X_5_8 + 603 X_5_9 + 1020 X_6_0 + 227 X_6_1
  + 469 X_6_2 + 633 X_6_3 + 795 X_6_4 + 233 X_6_5 + 282 X_6_7 + 969 X_6_8 + 790 X_6_9 + 745 X_7_0
  + 247 X_7_1 + 273 X_7_2 + 350 X_7_3 + 593 X_7_4 + 104 X_7_5 + 282 X_7_6 + 700 X_7_8 + 515 X_7_9
  + 469 X_8_0 + 925 X_8_1 + 536 X_8_2 + 405 X_8_3 + 369 X_8_4 + 792 X_8_5 + 969 X_8_6 + 700 X_8_7
  + 192 X_8_9 + 418 X_9_0 + 734 X_9_1 + 391 X_9_2 + 215 X_9_3 + 358 X_9_4 + 603 X_9_5 + 790 X_9_6
  + 515 X_9_7 + 192 X_9_8
  <= 3
 obj4:
  + 638 X_0_1 + 969 X_0_2 + 297 X_0_3 + 323 X_0_4 + 421 X_0_5 + 812 X_0_6 + 922 X_0_7 + 258 X_0_8
  + 443 X_0_9 + 638 X_1_0 + 360 X_1_2 + 343 X_1_3 + 797 X_1_4 + 522 X_1_5 + 594 X_1_6 + 400 X_1_7
  + 415 X_1_8 + 254 X_1_9 + 969 X_2_0 + 360 X_2_1 + 674 X_2_3 + 1058 X_2_4 + 878 X_2_5 + 571 X_2_6
  + 183 X_2_7 + 721 X_2_8 + 614 X_2_9 + 297 X_3_0 + 343 X_3_1 + 674 X_3_2 + 484 X_3_4 + 371 X_3_5
  + 622 X_3_6 + 643 X_3_7 + 99 X_3_8 + 202 X_3_9 + 323 X_4_0 + 797 X_4_1 + 1058 X_4_2 + 484 X_4_3
  + 735 X_4_5 + 713 X_4_6 + 957 X_4_7 + 390 X_4_8 + 682 X_4_9 + 421 X_5_0 + 522 X_5_1 + 878 X_5_2
  + 371 X_5_3 + 735 X_5_4 + 983 X_5_6 + 915 X_5_7 + 447 X_5_8 + 274 X_5_9 + 812 X_6_0 + 594 X_6_1
  + 571 X_6_2 + 622 X_6_3 + 713 X_6_4 + 983 X_6_5 + 394 X_6_7 + 582 X_6_8 + 735 X_6_9 + 922 X_7_0
  + 400 X_7_1 + 183 X_7_2 + 643 X_7_3 + 957 X_7_4 + 915 X_7_5 + 394 X_7_6 + 665 X_7_8 + 640 X_7_9
  + 258 X_8_0 + 415 X_8_1 + 721 X_8_2 + 99 X_8_3 + 390 X_8_4 + 447 X_8_5 + 582 X_8_6 + 665 X_8_7
  + 302 X_8_9 + 443 X_9_0 + 254 X_9_1 + 614 X_9_2 + 202 X_9_3 + 682 X_9_4 + 274 X_9_5 + 735 X_9_6
  + 640 X_9_7 + 302 X_9_8
  <= 4
 obj5:
  + 230 X_0_1 + 502 X_0_2 + 615 X_0_3 + 736 X_0_4 + 775 X_0_5 + 616 X_0_6 + 990 X_0_7 + 644 X_0_8
  + 724 X_0_9 + 230 X_1_0 + 585 X_1_2 + 388 X_1_3 + 808 X_1_4 + 561 X_1_5 + 501 X_1_6 + 872 X_1_7
  + 722 X_1_8 + 508 X_1_9 + 502 X_2_0 + 585 X_2_1 + 900 X_2_3 + 233 X_2_4 + 856 X_2_5 + 475 X_2_6
  + 733 X_2_7 + 141 X_2_8 + 828 X_2_9 + 615 X_3_0 + 388 X_3_1 + 900 X_3_2 + 1092 X_3_4 + 346 X_3_5
  + 595 X_3_6 + 877 X_3_7 + 1019 X_3_8 + 300 X_3_9 + 736 X_4_0 + 808 X_4_1 + 233 X_4_2 + 1092 X_4_3
  + 990 X_4_5 + 578 X_4_6 + 719 X_4_7 + 92 X_4_8 + 971 X_4_9 + 775 X_5_0 + 561 X_5_1 + 856 X_5_2
  + 346 X_5_3 + 990 X_5_4 + 414 X_5_6 + 574 X_5_7 + 940 X_5_8 + 54 X_5_9 + 616 X_6_0 + 501 X_6_1
  + 475 X_6_2 + 595 X_6_3 + 578 X_6_4 + 414 X_6_5 + 376 X_6_7 + 535 X_6_8 + 402 X_6_9 + 990 X_7_0
  + 872 X_7_1 + 733 X_7_2 + 877 X_7_3 + 719 X_7_4 + 574 X_7_5 + 376 X_7_6 + 724 X_7_8 + 598 X_7_9
  + 644 X_8_0 + 722 X_8_1 + 141 X_8_2 + 1019 X_8_3 + 92 X_8_4 + 940 X_8_5 + 535 X_8_6 + 724 X_8_7
  + 917 X_8_9 + 724 X_9_0 + 508 X_9_1 + 828 X_9_2 + 300 X_9_3 + 971 X_9_4 + 54 X_9_5 + 402 X_9_6
  + 598 X_9_7 + 917 X_9_8
  <= 5
 obj6:
  + 749 X_0_1 + 1049 X_0_2 + 814 X_0_3 + 806 X_0_4 + 864 X_0_5 + 163 X_0_6 + 466 X_0_7 + 327 X_0_8
  + 840 X_0_9 + 749 X_1_0 + 534 X_1_2 + 969 X_1_3 + 845 X_1_4 + 491 X_1_5 + 907 X_1_6 + 286 X_1_7
  + 478 X_1_8 + 249 X_1_9 + 1049 X_2_0 + 534 X_2_1 + 781 X_2_3 + 629 X_2_4 + 207 X_2_5 + 1170 X_2_6
  + 705 X_2_7 + 722 X_2_8 + 287 X_2_9 + 814 X_3_0 + 969 X_3_1 + 781 X_3_2 + 151 X_3_4 + 602 X_3_5
  + 823 X_3_6 + 870 X_3_7 + 655 X_3_8 + 823 X_3_9 + 806 X_4_0 + 845 X_4_1 + 629 X_4_2 + 151 X_4_3
  + 452 X_4_5 + 845 X_4_6 + 780 X_4_7 + 592 X_4_8 + 682 X_4_9 + 864 X_5_0 + 491 X_5_1 + 207 X_5_2
  + 602 X_5_3 + 452 X_5_4 + 975 X_5_6 + 578 X_5_7 + 542 X_5_8 + 263 X_5_9 + 163 X_6_0 + 907 X_6_1
  + 1170 X_6_2 + 823 X_6_3 + 845 X_6_4 + 975 X_6_5 + 626 X_6_7 + 460 X_6_8 + 981 X_6_9 + 466 X_7_0
  + 286 X_7_1 + 705 X_7_2 + 870 X_7_3 + 780 X_7_4 + 578 X_7_5 + 626 X_7_6 + 247 X_7_8 + 438 X_7_9
  + 327 X_8_0 + 478 X_8_1 + 722 X_8_2 + 655 X_8_3 + 592 X_8_4 + 542 X_8_5 + 460 X_8_6 + 247 X_8_7
  + 520 X_8_9 + 840 X_9_0 + 249 X_9_1 + 287 X_9_2 + 823 X_9_3 + 682 X_9_4 + 263 X_9_5 + 981 X_9_6
  + 438 X_9_7 + 520 X_9_8
  <= 6
Bounds
 1 <= U1 <= 9
 1 <= U2 <= 9
 1 <= U3 <= 9
 1 <= U4 <= 9
 1 <= U5 <= 9
 1 <= U6 <= 9
 1 <= U7 <= 9
 1 <= U8 <= 9
 1 <= U9 <= 9
Binary
 X_0_1
 X_0_2
 X_0_3
 X_0_4
 X_0_5
 X_0_6
 X_0_7
 X_0_8
 X_0_9
 X_1_0
 X_1_2
 X_1_3
 X_1_4
 X_1_5
 X_1_6
 X_1_7
 X_1_8
 X_1_9
 X_2_0
 X_2_1
 X_2_3
 X_2_4
 X_2_5
 X_2_6
 X_2_7
 X_2_8
 X_2_9
 X_3_0
 X_3_1
 X_3_2
 X_3_4
 X_3_5
 X_3_6
 X_3_7
 X_3_8
 X_3_9
 X_4_0
 X_4_1
 X_4_2
 X_4_3
 X_4_5
 X_4_6
 X_4_7
 X_4_8
 X_4_9
 X_5_0
 X_5_1
 X_5_2
 X_5_3
 X_5_4
 X_5_6
 X_5_7
 X_5_8
 X_5_9
 X_6_0
 X_6_1
 X_6_2
 X_6_3
 X_6_4
 X_6_5
 X_6_7
 X_6_8
 X_6_9
 X_7_0
 X_7_1
 X_7_2
 X_7_3
 X_7_4
 X_7_5
 X_7_6
 X_7_8
 X_7_9
 X_8_0
 X_8_1
 X_8_2
 X_8_3
 X_8_4
 X_8_5
 X_8_6
 X_8_7
 X_8_9
 X_9_0
 X_9_1
 X_9_2
 X_9_3
 X_9_4
 X_9_5
 X_9_6
 X_9_7
 X_9_8
End
